(set-logic ALL)
(declare-var x (BitVec 32))
(declare-var x! (BitVec 32))
(declare-var y (BitVec 32))
(declare-var y! (BitVec 32))
(declare-var z (BitVec 32))
(declare-var z! (BitVec 32))
(declare-var x_0 (BitVec 32))
(declare-var x_0! (BitVec 32))
(declare-var x_1 (BitVec 32))
(declare-var x_1! (BitVec 32))
(declare-var x_2 (BitVec 32))
(declare-var x_2! (BitVec 32))
(declare-var y_0 (BitVec 32))
(declare-var y_0! (BitVec 32))
(declare-var y_1 (BitVec 32))
(declare-var y_1! (BitVec 32))
(declare-var y_2 (BitVec 32))
(declare-var y_2! (BitVec 32))
(declare-var y_3 (BitVec 32))
(declare-var y_3! (BitVec 32))
(declare-var z_0 (BitVec 32))
(declare-var z_0! (BitVec 32))
(synth-fun inv-f((parameter0 (BitVec 32))(parameter1 (BitVec 32))(parameter2 (BitVec 32))(parameter3 (BitVec 32))(parameter4 (BitVec 32))(parameter5 (BitVec 32))(parameter6 (BitVec 32))(parameter7 (BitVec 32))(parameter8 (BitVec 32))(parameter9 (BitVec 32))(parameter10 (BitVec 32)))Bool) 
(constraint (=> (and (= x x_0) (= x_0 (_ bv0 32)) )(inv-f x y z x_0 x_1 x_2 y_0 y_1 y_2 y_3 z_0 )))
(constraint (=> (and (inv-f x y z x_0 x_1 x_2 y_0 y_1 y_2 y_3 z_0 ) (or (or (and (and (and (and (and (= x_1 x) (= y_1 y) ) (= x_1 x!) ) (= y_1 y!) ) (= y y!) ) (= z z!) ) (and (and (and (and (and (and (and (and (and (and (= x_1 x) (= y_1 y) ) (bvult x_1 (_ bv500 32)) ) (= x_2 (bvadd x_1 (_ bv1 32))) ) (bvule z_0 y_1) ) (= y_2 z_0) ) (= y_3 y_2) ) (= x_2 x!) ) (= y_3 y!) ) (= z z_0) ) (= z! z_0) ) ) (and (and (and (and (and (and (and (and (and (= x_1 x) (= y_1 y) ) (bvult x_1 (_ bv500 32)) ) (= x_2 (bvadd x_1 (_ bv1 32))) ) (not (bvule z_0 y_1)) ) (= y_3 y_1) ) (= x_2 x!) ) (= y_3 y!) ) (= z z_0) ) (= z! z_0) ) ) )(inv-f x! y! z! x_0! x_1! x_2! y_0! y_1! y_2! y_3! z_0! )))
(constraint (=> (inv-f x y z x_0 x_1 x_2 y_0 y_1 y_2 y_3 z_0 )(or (not (and (and (= x x_1) (= y y_1) ) (= z z_0) )) (not (and (not (bvult x_1 (_ bv500 32))) (not (bvuge z_0 y_1)) )) )))
(check-synth)

